data/processed_heuristic-threshold/instances/1/8/ds_616_courier_4474/pairwise.tsp
NAME: ds_616_courier_4474
TYPE: TSP
COMMENT: nil
DIMENSION: 9
EDGE_WEIGHT_TYPE: EXPLICIT
EDGE_WEIGHT_FORMAT: FULL_MATRIX
EDGE_WEIGHT_SECTION
9999 1251 1034 1661 801 1663 1901 784 1771 
1251 9999 267 1170 1894 903 1245 467 883 
1034 267 9999 1038 1636 840 1168 285 873 
1661 1170 1038 9999 1829 358 275 1245 517 
801 1894 1636 1829 9999 1981 2104 1462 2133 
1663 903 840 358 1981 9999 343 1095 175 
1901 1245 1168 275 2104 343 9999 1409 422 
784 467 285 1245 1462 1095 1409 9999 1146 
1771 883 873 517 2133 175 422 1146 9999 
