data/processed_heuristic-threshold/instances/1/8/ds_616_courier_4474/pairwise.sol
9
0 4 3 6 5 8 1 2 7 
